50
    1   106   100
    2    77    76
    3    19    26
    4    85    79
    5    66    64
    6    23    18
    7     1     1
    8    84    80
    9    90    93
   10    66    66
   11    77    72
   12    51    47
   13    53    60
   14    37    32
   15    26    33
   16    76    69
   17    84    93
   18    22    12
   19     1     1
   20    84    74
   21    54    57
   22    11    20
   23    98    96
   24    74    75
   25     1     1
   26    94    92
   27    51    58
   28    94    88
   29    32    38
   30    74    75
   31    44    50
   32    60    56
   33    21    16
   34    24    25
   35     8     4
   36    38    41
   37    75    72
   38    87    81
   39    38    44
   40    49    39
   41    17    27
   42    48    38
   43    12     6
   44    80    90
   45     2     3
   46    59    59
   47     8     2
   48    94    90
   49    10    19
   50    22    12
823
